sat

(objectives
 ((bvadd PriceProv11 (bvadd PriceProv10 (bvadd PriceProv9 (bvadd PriceProv8 (bvadd PriceProv7 (bvadd PriceProv6 (bvadd PriceProv5 (bvadd PriceProv4 (bvadd PriceProv3 (bvadd PriceProv1 PriceProv2)))))))))) (_ bv54912 32))
)
;; statistics
(
 :cnf-variables 2524
 :cnf-literals 8275
 :cnf-clauses 3678
 :sat-checks 9
 :sat-restarts 65
 :sat-decisions 228719
 :sat-random-decisions 156
 :sat-propagations 1090984562
 :sat-theory-propagations 1
 :sat-watched-clauses-visited 1249817910
 :sat-binary-watched-clauses-visited 740295947
 :sat-conflicts 86534
 :sat-theory-conflicts 0
 :theory-necessary-interface-equalities 0
 :theory-extra-interface-equalities 0
 :euf-total-calls 240262
 :euf-complete-calls 6
 :euf-conflicts 0
 :euf-implications 1
 :euf-explanations 1
 :euf-egraph-nodes-created 136487
 :euf-egraph-nodes-deleted 129840
 :euf-num-asserted-equalities 8425889
 :euf-num-asserted-inequalities 4157949
 :euf-num-merges 17920781
 :euf-num-merges-undone 17920781
 :euf-num-atoms-retold 31328
 :la-total-calls 240262
 :la-complete-calls 6
 :la-conflicts 0
 :la-implications 0
 :la-explanations 0
 :la-num-equalities-split 0
 :la-num-tableau-rows 0
 :la-num-tableau-variables 0
 :bv-total-calls 240262
 :bv-complete-calls 6
 :bv-conflicts 0
 :bv-implications 0
 :bv-explanations 0
 :fp-total-calls 240262
 :fp-complete-calls 6
 :fp-conflicts 0
 :fp-implications 0
 :fp-explanations 0
 :arr-total-calls 240262
 :arr-complete-calls 6
 :arr-conflicts 0
 :arr-implications 0
 :arr-explanations 0
 :arr-write-lemmas-added 0
 :arr-row-lemmas-added 0
 :arr-ext-lemmas-added 0
 :arr-const-lemmas-added 0
 :na-total-calls 240262
 :na-complete-calls 6
 :na-conflicts 0
 :na-implications 0
 :na-explanations 0
 :na-num_nonlinear_multiplications 0
 :na-num_axiom_checks 0
 :na-num_zero_lemmas 0
 :na-num_sign_lemmas 0
 :na-num_neutral_lemmas 0
 :na-num_proportionality_lemmas 0
 :na-num_bound_lemmas 0
 :na-num_tangent_lemmas 0
 :na-num_monotonicity_lemmas 0
 :na-num_sat_checks 0
 :na-axiom_check_time 0.000
 :na-sat_check_time 0.000
 :time-seconds 131.797
 :memory-mb 127.613
)
